CMPL model generation - running

CMPL version: 1.11.0
Authors: Thomas Schleiff, Mike Steglich
Distributed under the GPLv3 

create model instance ...
write model instance ...
CMPL model generation - finished

Solver - running


Welcome to IBM(R) ILOG(R) CPLEX(R) Interactive Optimizer 12.7.1.0
  with Simplex, Mixed Integer & Barrier Optimizers
5725-A06 5725-A29 5724-Y48 5724-Y49 5724-Y54 5724-Y55 5655-Y21
Copyright IBM Corp. 1988, 2017.  All Rights Reserved.

Type 'help' for a list of available commands.
Type 'help' followed by a command name for more
information on commands.

CPLEX> Specified objective sense: MINIMIZE
Selected objective  name:  line[1]
Selected RHS        name:  RHS
Selected bound      name:  BOUND
Problem '/tmp/cmpl.T23709.mps' read.
Read time = 0.07 sec. (10.11 ticks)
CPLEX> CPXPARAM_Read_APIEncoding                        "UTF-8"
Tried aggregator 3 times.
MIP Presolve eliminated 24073 rows and 37718 columns.
MIP Presolve modified 425 coefficients.
Aggregator did 717 substitutions.
Reduced MIP has 3132 rows, 4020 columns, and 11904 nonzeros.
Reduced MIP has 3810 binaries, 0 generals, 0 SOSs, and 0 indicators.
Presolve time = 0.06 sec. (51.82 ticks)
Found incumbent of value 1119.186163 after 0.12 sec. (121.67 ticks)
Probing fixed 5 vars, tightened 0 bounds.
Probing time = 0.01 sec. (5.21 ticks)
Tried aggregator 1 time.
MIP Presolve eliminated 0 rows and 5 columns.
MIP Presolve modified 23 coefficients.
Reduced MIP has 3132 rows, 4015 columns, and 11894 nonzeros.
Reduced MIP has 4015 binaries, 0 generals, 0 SOSs, and 0 indicators.
Presolve time = 0.01 sec. (10.01 ticks)
Probing time = 0.01 sec. (2.82 ticks)
Clique table members: 7310.
MIP emphasis: balance optimality and feasibility.
MIP search method: dynamic search.
Parallel mode: none, using 1 thread.
Root relaxation solution time = 0.01 sec. (5.42 ticks)

        Nodes                                         Cuts/
   Node  Left     Objective  IInf  Best Integer    Best Bound    ItCnt     Gap

*     0+    0                         1119.1862      -46.3303           104.14%
      0     0       72.6497    19     1119.1862       72.6497       88   93.51%
*     0+    0                          100.6149       72.6497            27.79%
*     0+    0                           73.0840       72.6497             0.59%
      0     0       73.0454     1       73.0840       Cuts: 9       92    0.05%
*     0+    0                           73.0680       73.0454             0.03%
      0     0        cutoff             73.0680                     93    0.00%
Elapsed time = 0.20 sec. (172.31 ticks, tree = 0.01 MB, solutions = 4)

GUB cover cuts applied:  1
Cover cuts applied:  5
Gomory fractional cuts applied:  3

Root node processing (before b&c):
  Real time             =    0.20 sec. (174.42 ticks)
Sequential b&c:
  Real time             =    0.00 sec. (0.00 ticks)
                          ------------
Total (root+branch&cut) =    0.20 sec. (174.42 ticks)

Solution pool: 4 solutions saved.

MIP - Integer optimal solution:  Objective =  7.3068017000e+01
Solution time =    0.20 sec.  Iterations = 93  Nodes = 0
Deterministic time = 174.54 ticks  (875.15 ticks/sec)

CPLEX> Incumbent solution written to file '/tmp/cmpl.T23709.gsol'.
CPLEX> 
CMPL: Time used for model generation: 0 seconds
CMPL: Time used for solving the model: 2 seconds


Solution written to ASCII file: results/output_generated_conf_0.2/2017-07-03-5/fair-nonlinear.sol

Solver - finished
